(declare-fun e () String)
(declare-fun c () String)
(declare-fun b () String)
(declare-fun f () String)
(declare-fun a () String)
(declare-fun h () String)
(assert (= (str.++ a b e) h))
(assert (= (str.++ "c" e "ed") (str.++ h b "d")))
(assert (= (str.++ a "haf" c f) "gded"))

(check-sat)
